NAME: tsp_file.tsp
COMMENT: TSP file generated by Python
TYPE: TSP
DIMENSION: 40
EDGE_WEIGHT_TYPE: EUC_2D
NODE_COORD_SECTION
1 31 55
2 87 51
3 38 38
4 71 91
5 7 33
6 60 62
7 63 90
8 50 12
9 33 12
10 86 37
11 27 7
12 38 88
13 80 28
14 62 89
15 87 25
16 13 69
17 70 65
18 77 38
19 59 82
20 5 15
21 48 84
22 14 89
23 39 12
24 69 4
25 48 11
26 23 23
27 34 87
28 95 12
29 48 3
30 22 27
31 28 21
32 94 97
33 21 1
34 21 100
35 71 48
36 70 67
37 89 9
38 97 61
39 14 31
40 29 95
EOF
